225
378
279
336
38
243
88
68
51
320
60
235
360
75
172
224
49
156
196
405
35
468
246
279
432
185
130
220
132
400
120
58
184
108
175
336
248
343
152
243
180
68
510
82
270
47
185
104
387
160
200
39
280
368
350
416
252
217
432
185
81
88
297
102
360
29
94
324
200
215
256
147
380
56
180
68
104
123
210
288
370
208
220
231
50
156
29
138
140
50
126
62
392
342
54
352
34
255
120
